[Adblock Plus 2.0]
! Version: 202202080200
! Title: videoads
! Last modified: 08 February 2022 02:00 UTC
! Expires: 1 days (update frequency)
! Homepage: https://github.com/Dotrox/Adblock-filters

*trafmag.*
*ankunding.*
*figgq.*
*rsepv.com^
*protovid.com^
*cpwub.com^
*revcontent.com^
*mixadvert.*
*hdjjksjfgo.*
*ldkdierujjfmcn.*
*franecki.*
*kosmo.*
*wisokykulas.bid^
||acdn.meta.ua/
||pascal5.science/
||toro-tags.com/
*braun634.*
smotretonline.ru
*malokacha.com^
*skwstat.ru^
*malokacha.club^
*adprofits.*
*4736.in^
*aj1713.online^
*ssvim.com^
*spylees.com^
*adswrapme.click^
*bdbdqekibb.com^
*covivado.club^
*umwiba.com^
*trafficbass.com^
*kost.tv^
*adpartner.pro^
*tvzavr.ru^
*uwatch.xyz^
*weborama.fr^
*1dmp.io^
*tvigle.ru^
*traffic8.net^
*traffer.net^
*xcec.ru^
*bdbdqskibb.com^
*otm-r.com^
*moviead55.ru^
mail.i.ua##.widget_adv.widget-mt
##.MIXADVERT_NET
video.meta.ua##[id$="bonus_video_embed"]
*declarationextra.com^
*videosss.ru^
*ssso.ru^
*playjusting.com^
*adspeeker.com^
*elonreptiloid.com^
*zyrji.com^
*uvlqpntttljy.com^
*introductioncleavernipple.com^
*dateddeed.com^
*regulationprivilegescan.top^
*venetrigni.com^
*addresseepaper.com^
protonvideo.to###playerBg
*ribsaiji.com^
||ribsaiji.com^
*eoeeunuxnyco.com^
*denetsuk.com^
*glersakr.com^
*xhvtkbnecqd.com^
www.mp4upload.com###lay
www.mp4upload.com##html>div
www.mp4upload.com##iframe
! From RuAdList+EasyList
/*.json|$third-party,xmlhttprequest,domain=www.mp4upload.com
/*aHR0c$third-party,domain=www.mp4upload.com
! about:blank popups
|about:blank#$popup,domain=22pixx.xyz|9anime.to|adblockstrtape.link|animepahe.com|bitporno.com|cdnqq.net|clipconverter.cc|dailyuploads.net|disk.ly|dood.la|dood.so|dood.to|dood.video|dood.watch|dood.ws|doodcdn.com|fcdn.stream|flashx.net|fmovies.to|gospeljingle.com|gowatchseries.online|hqq.tv|hydracdn.network|imagetwist.com|kissanime-ru.ws|mixdrop.bz|mixdrop.co|mixdrop.sx|mp4upload.com|mstream.xyz|onlystream.tv|player.cineflixtv.com|player.cineflixtv.net|playtube.ws|popads.net|powvideo.net|powvldeo.cc|putlocker.style|run-syndicate.com|sdmoviespoint.online|spcdn.cc|steamplay.cc|strcloud.link|streamani.net|streamsb.net|streamtape.cc|streamtape.com|streamtape.site|streamzz.to|strtape.cloud|strtape.tech|strtapeadblock.club|strtapeadblock.me|strtpe.link|tapecontent.net|upstream.to|uptostream.com|userload.co|vev.red|vevo.io|vidcloud.co|videobin.co|videowood.tv|viditodo.com|vidoza.net|vidxhot.net|voe.sx|vortez.net|vshare.eu|vumoo.to|waaw.to|watchserieshd.tv
! Domain popups
/^https?:\/\/.*\.(club|net|xyz|top|casa)\//$popup,domain=123movies2022.org|123moviesme.online|9anime.to|databasegdriveplayer.co|dood.la|dood.so|dood.to|dood.video|dood.watch|dood.ws|doodcdn.com|fmovies.to|fmovies.world|fplayer.info|gogoanimes.to|gogoplay1.com|mixdrop.co|redirect-ads.com|strtpe.link|wawacity.work
! html/image popups
/^https?:\/\/.*\.(jpg|gif|png|php|svg|ico|js|txt)/$popup,domain=123-movies.ninja|123movies.net|123movies2022.org|123moviesfree4u.com|123moviesme.online|123proxy.biz|2embed.ru|4anime.gg|5movies.fm|9anime.to|adblockstrtape.link|adf.ly|animekisa.cc|animepahe.com|asianembed.io|bunnycdn.ru|clicknupload.to|clipconverter.cc|cloudvideo.tv|cmovies.online|dailyuploads.net|databasegdriveplayer.co|dood.la|dood.sh|dood.so|dood.to|dood.video|dood.watch|dood.ws|doodcdn.com|dramacool.pk|eplayvid.com|eplsite.uk|europixhd.net|extreme-down.plus|fcdn.stream|filmestorrents.net|flashx.net|flixtor.video|fmovies.to|fmovies.world|fplayer.info|go-stream.site|gogoanimes.to|gogoplay1.com|gomovies.cyou|gospeljingle.com|gowatchseries.online|hexupload.net|hulkstreams.com|jackstream.net|jackstreams.com|kimoitv.com|kiss-anime.org|kissanime-ru.ws|lookmoviess.com|meomeo.pw|mixdrop.co|mixdrop.sx|mkvcage.site|mkvhub.tech|mlsbd.shop|movies2watch.tv|moviesbaba.life|mp4upload.com|myflixer.it|mystream.to|olympicstreams.me|pahe.ph|paidnaija.com|playemulator.online|player.cineflixtv.com|projectfreetv.watch|projectfreetv2.com|putlockers.fm|putlockers.gs|redirect-ads.com|sdmoviespoint.online|sflix.to|skidrow-games.com|skidrowcodex.net|speedvideo.net|sportsbay.watch|streamani.net|streamsb.net|streamtape.cc|streamtape.com|streamtape.net|streamzz.to|strikeout.cc|strikeout.nu|strtape.cloud|strtape.site|strtape.tech|strtapeadblock.me|strtpe.link|tapecontent.net|telerium.net|upornia.com|upstream.to|upvid.co|usagoals.sx|vidembed.cc|videovard.sx|vidnext.net|vido.fun|vidsrc.me|vipbox.lc|vipleague.im|vipleague.tv|viprow.me|voe.sx|vumoo.to|watchseries.ninja|watchserieshd.tv|wawacity.work|yesmovies.id|yomovies.nl|yseries.tv|ytanime.tv
