[Adblock Plus 1.4]
! Version: 202202080108
! Title: videoads
! Last modified: 08 February 2022 01:08 UTC
! Expires: 1 days (update frequency)
! Homepage: https://github.com/Dotrox/Adblock-filters

*trafmag.*
*ankunding.*
*figgq.*
*rsepv.com^
*protovid.com^
*cpwub.com^
*revcontent.com^
*mixadvert.*
*hdjjksjfgo.*
*ldkdierujjfmcn.*
*franecki.*
*kosmo.*
*wisokykulas.bid^
||acdn.meta.ua/
||pascal5.science/
||toro-tags.com/
*braun634.*
smotretonline.ru
*malokacha.com^
*skwstat.ru^
*malokacha.club^
*adprofits.*
*4736.in^
*aj1713.online^
*ssvim.com^
*spylees.com^
*adswrapme.click^
*bdbdqekibb.com^
*covivado.club^
*umwiba.com^
*trafficbass.com^
*kost.tv^
*adpartner.pro^
*tvzavr.ru^
*uwatch.xyz^
*weborama.fr^
*1dmp.io^
*tvigle.ru^
*traffic8.net^
*traffer.net^
*xcec.ru^
*bdbdqskibb.com^
*otm-r.com^
*moviead55.ru^
mail.i.ua##.widget_adv.widget-mt
##.MIXADVERT_NET
video.meta.ua##[id$="bonus_video_embed"]
*declarationextra.com^
*videosss.ru^
*ssso.ru^
*playjusting.com^
*adspeeker.com^
*elonreptiloid.com^
*zyrji.com^
*uvlqpntttljy.com^
*introductioncleavernipple.com^
*dateddeed.com^
*regulationprivilegescan.top^
*venetrigni.com^
*addresseepaper.com^
protonvideo.to###playerBg
*ribsaiji.com^
*eoeeunuxnyco.com^
*denetsuk.com^
*glersakr.com^
*xhvtkbnecqd.com^
mp4upload.com###lay
mp4upload.com##html>div
mp4upload.com##iframe
